
Gurobi 11.0.0 (linux64) logging started Wed Apr 10 21:13:21 2024

Set parameter LogFile to value "/lustre1/scratch/348/vsc34888/JointResearch/05.Models/06.Benchmarking/B.Operation_cost/9n_ByStages_nc60/openStarNet_9n_ByStages_nc60.log"
Set parameter Method to value 2
Set parameter MIPFocus to value 1
Set parameter Presolve to value 2
Set parameter RINS to value 100
Set parameter MIPGap to value 0.01
Set parameter Threads to value 36
Set parameter TimeLimit to value 259200
Set parameter IterationLimit to value 760000000
Gurobi Optimizer version 11.0.0 build v11.0.0rc2 (linux64 - "Rocky Linux 8.8 (Green Obsidian)")

CPU model: Intel(R) Xeon(R) Gold 6240 CPU @ 2.60GHz, instruction set [SSE2|AVX|AVX2|AVX512]
Thread count: 36 physical cores, 36 logical processors, using up to 36 threads

Optimize a model with 15723 rows, 8263 columns and 47257 nonzeros
Model fingerprint: 0xe667ada9
Variable types: 8227 continuous, 36 integer (36 binary)
Coefficient statistics:
  Matrix range     [8e-04, 7e+02]
  Objective range  [1e+00, 1e+00]
  Bounds range     [4e-04, 2e+00]
  RHS range        [4e-04, 1e+00]
Presolve removed 5343 rows and 2824 columns
Presolve time: 0.07s
Presolved: 10380 rows, 5439 columns, 35403 nonzeros
Variable types: 5403 continuous, 36 integer (36 binary)
Found heuristic solution: objective 860.0651794
Root relaxation presolved: 10380 rows, 5439 columns, 35403 nonzeros

Root barrier log...

Ordering time: 0.01s

Barrier statistics:
 Dense cols : 36
 AA' NZ     : 1.229e+05
 Factor NZ  : 2.433e+05 (roughly 8 MB of memory)
 Factor Ops : 8.104e+06 (less than 1 second per iteration)
 Threads    : 36

                  Objective                Residual
Iter       Primal          Dual         Primal    Dual     Compl     Time
   0   4.85887914e+05 -1.69009789e+07  7.31e+00 1.44e+02  3.28e+03     0s
   1   7.96573675e+04 -6.89918678e+06  1.04e+00 6.17e-10  5.08e+02     0s
   2   1.46090658e+04 -1.40851357e+06  3.04e-02 2.26e-09  7.21e+01     0s
   3   4.52026791e+03 -4.16387402e+04  4.44e-14 1.78e-10  2.28e+00     0s
   4   1.11748923e+03 -7.18754585e+03  2.40e-14 2.96e-11  4.10e-01     0s
   5   6.17454445e+02 -1.40729000e+03  7.11e-15 5.77e-12  1.00e-01     0s
   6   4.68168369e+02 -6.99700815e+02  2.66e-14 2.95e-12  5.77e-02     0s
   7   2.87516640e+02 -1.64293720e+02  1.35e-13 1.07e-12  2.23e-02     0s
   8   1.75819512e+02  3.01790024e+01  1.86e-13 9.09e-13  7.20e-03     0s
   9   1.13649342e+02  7.37768603e+01  1.39e-12 4.55e-13  1.97e-03     0s
  10   1.03709160e+02  8.66354523e+01  2.18e-12 9.09e-13  8.44e-04     0s
  11   9.82888984e+01  9.08513530e+01  1.80e-12 4.55e-13  3.68e-04     0s
  12   9.74000599e+01  9.16606555e+01  1.86e-11 4.55e-13  2.84e-04     0s
  13   9.55010683e+01  9.18601240e+01  5.58e-11 4.55e-13  1.80e-04     0s
  14   9.33278764e+01  9.23827466e+01  5.83e-11 4.55e-13  4.67e-05     0s
  15   9.27659767e+01  9.26334900e+01  1.39e-10 4.55e-13  6.55e-06     0s
  16   9.26818221e+01  9.26483378e+01  3.84e-10 4.55e-13  1.65e-06     0s
  17   9.26649215e+01  9.26498507e+01  9.34e-10 4.55e-13  7.45e-07     1s
  18   9.26602495e+01  9.26526339e+01  7.30e-10 6.82e-13  3.76e-07     1s
  19   9.26585289e+01  9.26527260e+01  6.27e-10 4.55e-13  2.87e-07     1s
  20   9.26561835e+01  9.26532858e+01  3.10e-09 4.55e-13  1.43e-07     1s
  21   9.26534533e+01  9.26534532e+01  2.34e-10 4.55e-13  1.82e-12     1s

Barrier solved model in 21 iterations and 0.58 seconds (0.28 work units)
Optimal objective 9.26534533e+01


Root relaxation: objective 9.265345e+01, 449 iterations, 0.53 seconds (0.14 work units)

    Nodes    |    Current Node    |     Objective Bounds      |     Work
 Expl Unexpl |  Obj  Depth IntInf | Incumbent    BestBd   Gap | It/Node Time

     0     0   92.65345    0    6  860.06518   92.65345  89.2%     -    0s
H    0     0                     711.0589621   92.65345  87.0%     -    1s
H    0     0                     101.0061553   92.65345  8.27%     -    1s
     0     0          -    0       101.00616  100.28121  0.72%     -    1s

Cutting planes:
  Gomory: 3
  MIR: 98
  RLT: 4
  Relax-and-lift: 19

Explored 1 nodes (455 simplex iterations) in 1.09 seconds (0.37 work units)
Thread count was 36 (of 36 available processors)

Solution count 3: 101.006 711.059 860.065 

Optimal solution found (tolerance 1.00e-02)
Best objective 1.010061552631e+02, best bound 1.002812089188e+02, gap 0.7177%

Gurobi 11.0.0 (linux64) logging started Wed Apr 10 21:13:24 2024

Set parameter LogFile to value "/lustre1/scratch/348/vsc34888/JointResearch/05.Models/06.Benchmarking/B.Operation_cost/9n_ByStages_nc60/openStarNet_9n_ByStages_nc60.log"
Set parameter Method to value 2
Set parameter MIPFocus to value 1
Set parameter Presolve to value 2
Set parameter RINS to value 100
Set parameter MIPGap to value 0.01
Set parameter Threads to value 36
Set parameter TimeLimit to value 259200
Set parameter IterationLimit to value 760000000
Gurobi Optimizer version 11.0.0 build v11.0.0rc2 (linux64 - "Rocky Linux 8.8 (Green Obsidian)")

CPU model: Intel(R) Xeon(R) Gold 6240 CPU @ 2.60GHz, instruction set [SSE2|AVX|AVX2|AVX512]
Thread count: 36 physical cores, 36 logical processors, using up to 36 threads

Optimize a model with 15723 rows, 8227 columns and 38581 nonzeros
Model fingerprint: 0x78e0c260
Coefficient statistics:
  Matrix range     [8e-04, 7e+02]
  Objective range  [1e+00, 1e+00]
  Bounds range     [4e-04, 2e+00]
  RHS range        [4e-04, 2e+01]
Presolve removed 14283 rows and 5563 columns
Presolve time: 0.02s
Presolved: 1440 rows, 2745 columns, 6387 nonzeros

Ordering time: 0.00s

Barrier statistics:
 AA' NZ     : 3.639e+03
 Factor NZ  : 1.512e+04 (roughly 2 MB of memory)
 Factor Ops : 2.076e+05 (less than 1 second per iteration)
 Threads    : 1

                  Objective                Residual
Iter       Primal          Dual         Primal    Dual     Compl     Time
   0   4.88188232e+05 -1.13142946e+07  5.59e+00 2.33e+02  8.34e+03     0s
   1   7.37211746e+04 -5.14323965e+06  7.10e-01 6.81e-12  1.37e+03     0s
   2   1.96029940e+04 -1.34355809e+06  4.08e-02 8.88e-12  2.31e+02     0s
   3   1.06343744e+04 -6.02747303e+04  9.21e-04 7.13e-12  1.12e+01     0s
   4   1.47295762e+03 -3.17101772e+03  3.44e-15 4.87e-12  7.32e-01     0s
   5   6.85314733e+02 -8.98076442e+02  3.44e-15 2.37e-12  2.49e-01     0s
   6   4.13226430e+02 -1.89967832e+02  1.67e-15 1.82e-12  9.50e-02     0s
   7   2.33529943e+02  1.39337737e+01  8.77e-15 1.82e-12  3.46e-02     0s
   8   1.31348822e+02  7.89448054e+01  6.44e-15 1.82e-12  8.26e-03     0s
   9   1.06988078e+02  9.38102037e+01  4.96e-14 1.82e-12  2.08e-03     0s
  10   1.03826733e+02  9.89371008e+01  1.93e-14 9.09e-13  7.70e-04     0s
  11   1.01378385e+02  1.00481229e+02  8.85e-14 1.82e-12  1.41e-04     0s
  12   1.01025505e+02  1.00907801e+02  2.89e-13 1.82e-12  1.85e-05     0s
  13   1.01006350e+02  1.01005819e+02  2.18e-13 1.82e-12  8.37e-08     0s
  14   1.01006155e+02  1.01006155e+02  7.14e-14 3.64e-12  8.37e-11     0s

Barrier solved model in 14 iterations and 0.03 seconds (0.03 work units)
Optimal objective 1.01006155e+02

Crossover log...

     699 DPushes remaining with DInf 0.0000000e+00                 0s
       0 DPushes remaining with DInf 0.0000000e+00                 0s

      12 PPushes remaining with PInf 0.0000000e+00                 0s
       0 PPushes remaining with PInf 0.0000000e+00                 0s

  Push phase complete: Pinf 0.0000000e+00, Dinf 1.6929513e-13      0s

Iteration    Objective       Primal Inf.    Dual Inf.      Time
      60    1.0100616e+02   0.000000e+00   0.000000e+00      0s

Solved in 60 iterations and 0.04 seconds (0.03 work units)
Optimal objective  1.010061553e+02
